Problem:    
Rows:       248
Columns:    89 (72 integer, 72 binary)
Non-zeros:  820
Status:     INTEGER OPTIMAL
Objective:  value = 77.486732 (MINimum)

   No.   Row name        Activity     Lower bound   Upper bound
------ ------------    ------------- ------------- -------------
     1 r.5                   2077.49             0               
     2 r.6                  -1981.92      -1985.42               
     3 r.7                   77.4867             0               
     4 r.8                  -2.79964      -1987.86               
     5 r.9                   77.4867             0               
     6 r.10                 -1880.59      -1984.78               
     7 r.11                  2077.49             0               
     8 r.12                 -1947.18      -1987.51               
     9 r.13                  77.4867             0               
    10 r.14                 -1895.81      -1973.29               
    11 r.15                  2077.49             0               
    12 r.16                 -1959.67      -1980.34               
    13 r.17                  77.4867             0               
    14 r.18                 -1866.89       -1986.3               
    15 r.19                  2077.49             0               
    16 r.20                 -1982.33      -1989.75               
    17 r.21                  2077.49             0               
    18 r.22                 -1974.69      -1986.77               
    19 r.23                  77.4867             0               
    20 r.24                  19.4188      -1989.78               
    21 r.25                  2077.49             0               
    22 r.26                 -1922.51      -1962.82               
    23 r.27                  77.4867             0               
    24 r.28                  -1901.1      -1978.59               
    25 r.29                  77.4867             0               
    26 r.30                  3.49744      -1962.85               
    27 r.31                  2077.49             0               
    28 r.32                 -1922.51      -1978.34               
    29 r.33                  2077.49             0               
    30 r.34                  -1999.5       -1999.5               
    31 r.35                  77.4867             0               
    32 r.36                 0.497444      -1995.06               
    33 r.37                        1             1             = 
    34 r.38                        1             1             = 
    35 r.39                        1             1             = 
    36 r.40                        1             1             = 
    37 r.41                        1             1             = 
    38 r.42                        1             1             = 
    39 r.43                        1             1             = 
    40 r.44                        1             1             = 
    41 r.45                  101.329       15.2153               
    42 r.46                 -101.329      -1985.42               
    43 r.47                  55.6214       12.4885               
    44 r.48                 -55.6214      -1987.86               
    45 r.49                  86.1134       26.7067               
    46 r.50                 -86.1134      -1985.42               
    47 r.51                  43.1329       19.6601               
    48 r.52                 -43.1329      -1987.86               
    49 r.53                  115.027       13.6987               
    50 r.54                 -115.027      -1985.42               
    51 r.55                  20.4728       10.2543               
    52 r.56                 -20.4728      -1987.86               
    53 r.57                  13.2309       13.2309               
    54 r.58                 -19.2309      -1985.42               
    55 r.59                  16.2185       10.2185               
    56 r.60                 -10.2185      -1987.86               
    57 r.61                 -1940.59      -1959.82               
    58 r.62                 -1919.18      -1975.59               
    59 r.63                 -1919.71      -1959.82               
    60 r.64                  -1898.3      -1975.59               
    61 r.65                  1985.42       37.1469               
    62 r.66                 -1985.42      -1985.42               
    63 r.67                  80.2864        21.665               
    64 r.68                 -80.2864      -1987.86               
    65 r.69                 -1982.42      -1982.42               
    66 r.70                 -3.29708      -1984.86               
    67 r.71                 -1982.42      -1982.42               
    68 r.72                 -3.29708      -1984.86               
    69 r.73                  1898.67       14.5826               
    70 r.74                 -1898.67      -1984.78               
    71 r.75                  1944.38       12.1354               
    72 r.76                 -1944.38      -1987.51               
    73 r.77                  1984.78       26.7067               
    74 r.78                 -1984.78      -1984.78               
    75 r.79                  1987.51       19.6601               
    76 r.80                 -1987.51      -1987.51               
    77 r.81                  13.6987       13.6987               
    78 r.82                 -13.6987      -1984.78               
    79 r.83                  1964.85       10.2543               
    80 r.84                 -1964.85      -1987.51               
    81 r.85                   1911.9       13.2309               
    82 r.86                  -1917.9      -1984.78               
    83 r.87                   1960.6       10.2185               
    84 r.88                  -1954.6      -1987.51               
    85 r.89                  1958.08       37.1759               
    86 r.90                 -1958.08      -1984.78               
    87 r.91                  46.0772       21.4122               
    88 r.92                 -46.0772      -1987.51               
    89 r.93                  1884.09      -1959.85               
    90 r.94                  -41.922      -1975.34               
    91 r.95                 -49.3243      -1959.85               
    92 r.96                 -1975.34      -1975.34               
    93 r.97                 -1881.09      -1981.78               
    94 r.98                 -1947.68      -1984.51               
    95 r.99                 -1881.09      -1981.78               
    96 r.100                -1947.68      -1984.51               
    97 r.101                 1913.89       14.5826               
    98 r.102                -1913.89      -1973.29               
    99 r.103                 1956.87       12.1354               
   100 r.104                -1956.87      -1980.34               
   101 r.105                 15.2153       15.2153               
   102 r.106                -15.2153      -1973.29               
   103 r.107                 12.4885       12.4885               
   104 r.108                -12.4885      -1980.34               
   105 r.109                 -28.914      -1970.29               
   106 r.110                -92.7742      -1977.34               
   107 r.111                -1913.48      -1970.29               
   108 r.112                -1977.34      -1977.34               
   109 r.113                 1927.12       13.2309               
   110 r.114                -1933.12      -1973.29               
   111 r.115                 1973.09       10.2185               
   112 r.116                -1967.09      -1980.34               
   113 r.117                 1973.29       37.1759               
   114 r.118                -1973.29      -1973.29               
   115 r.119                 58.5657       21.4122               
   116 r.120                -58.5657      -1980.34               
   117 r.121                  1899.3      -1959.85               
   118 r.122                -26.7067      -1975.34               
   119 r.123                -36.8358      -1959.85               
   120 r.124                -1962.85      -1975.34               
   121 r.125                 -1896.3      -1970.29               
   122 r.126                -1960.16      -1977.34               
   123 r.127                 -1896.3      -1970.29               
   124 r.128                -1960.16      -1977.34               
   125 r.129                 1884.97       14.5826               
   126 r.130                -1884.97       -1986.3               
   127 r.131                 1979.53       12.1354               
   128 r.132                -1979.53      -1989.75               
   129 r.133                  1986.3       15.2153               
   130 r.134                 -1986.3       -1986.3               
   131 r.135                 35.1486       12.4885               
   132 r.136                -35.1486      -1989.75               
   133 r.137                 -28.914      -1970.29               
   134 r.138                -92.7742      -1977.34               
   135 r.139                -1913.48      -1970.29               
   136 r.140                -1977.34      -1977.34               
   137 r.141                  1898.2       13.2309               
   138 r.142                 -1904.2       -1986.3               
   139 r.143                 1995.75       10.2185               
   140 r.144                -1989.75      -1989.75               
   141 r.145                 1944.38       37.1759               
   142 r.146                -1944.38       -1986.3               
   143 r.147                 81.2258       21.4122               
   144 r.148                -81.2258      -1989.75               
   145 r.149                 1870.39      -1959.85               
   146 r.150                -55.6207      -1975.34               
   147 r.151                -14.1757      -1959.85               
   148 r.152                -1940.19      -1975.34               
   149 r.153                -1867.39       -1980.3               
   150 r.154                -1982.82      -1983.75               
   151 r.155                -1867.39       -1980.3               
   152 r.156                -1982.82      -1983.75               
   153 r.157                 1980.77       14.5826               
   154 r.158                -1980.77      -1986.77               
   155 r.159                 1989.78       12.1354               
   156 r.160                -1989.78      -1989.78               
   157 r.161                 82.0979       15.2153               
   158 r.162                -82.0979      -1986.77               
   159 r.163                 45.4029       12.4885               
   160 r.164                -45.4029      -1989.78               
   161 r.165                 66.8826       26.7067               
   162 r.166                -66.8826      -1986.77               
   163 r.167                 32.9144       19.6601               
   164 r.168                -32.9144      -1989.78               
   165 r.169                 95.7966       13.6987               
   166 r.170                -95.7966      -1986.77               
   167 r.171                 10.2543       10.2543               
   168 r.172                -10.2543      -1989.78               
   169 r.173                -1959.82      -1959.82               
   170 r.174                -1938.41      -1975.59               
   171 r.175                -1929.93      -1959.82               
   172 r.176                -1908.52      -1975.59               
   173 r.177                -33.8134      -1959.85               
   174 r.178                -1959.82      -1975.34               
   175 r.179                -3.92137      -1959.85               
   176 r.180                -1929.93      -1975.34               
   177 r.181                -1963.19      -1980.77               
   178 r.182                 6.92137      -1983.78               
   179 r.183                -1963.19      -1980.77               
   180 r.184                 6.92137      -1983.78               
   181 r.185                -1940.59      -1959.82               
   182 r.186                -1919.18      -1975.59               
   183 r.187                -1919.71      -1959.82               
   184 r.188                 -1898.3      -1975.59               
   185 r.189                  41.922       15.2153               
   186 r.190                 -41.922      -1962.82               
   187 r.191                 1953.92       12.4885               
   188 r.192                -1953.92      -1978.59               
   189 r.193                 26.7067       26.7067               
   190 r.194                -26.7067      -1962.82               
   191 r.195                 1941.43       19.6601               
   192 r.196                -1941.43      -1978.59               
   193 r.197                 55.6207       13.6987               
   194 r.198                -55.6207      -1962.82               
   195 r.199                 1918.77       10.2543               
   196 r.200                -1918.77      -1978.59               
   197 r.201                -1959.82      -1959.82               
   198 r.202                -1938.41      -1975.59               
   199 r.203                -1929.93      -1959.82               
   200 r.204                -1908.52      -1975.59               
   201 r.205                 1926.01       37.1469               
   202 r.206                -1926.01      -1962.82               
   203 r.207                 1978.59        21.665               
   204 r.208                -1978.59      -1978.59               
   205 r.209                 14.5826       14.5826               
   206 r.210                -14.5826      -1962.85               
   207 r.211                 1919.71       12.1354               
   208 r.212                -1919.71      -1978.34               
   209 r.213                 1884.09      -1959.85               
   210 r.214                 -41.922      -1975.34               
   211 r.215                -49.3243      -1959.85               
   212 r.216                -1975.34      -1975.34               
   213 r.217                  1899.3      -1959.85               
   214 r.218                -26.7067      -1975.34               
   215 r.219                -36.8358      -1959.85               
   216 r.220                -1962.85      -1975.34               
   217 r.221                 1870.39      -1959.85               
   218 r.222                -55.6207      -1975.34               
   219 r.223                -14.1757      -1959.85               
   220 r.224                -1940.19      -1975.34               
   221 r.225                -33.8134      -1959.85               
   222 r.226                -1959.82      -1975.34               
   223 r.227                -3.92137      -1959.85               
   224 r.228                -1929.93      -1975.34               
   225 r.229                 73.9893       37.1759               
   226 r.230                -73.9893      -1962.85               
   227 r.231                 21.4122       21.4122               
   228 r.232                -21.4122      -1978.34               
   229 r.233                -1982.42      -1982.42               
   230 r.234                -3.29708      -1984.86               
   231 r.235                -1982.42      -1982.42               
   232 r.236                -3.29708      -1984.86               
   233 r.237                -1881.09      -1981.78               
   234 r.238                -1947.68      -1984.51               
   235 r.239                -1881.09      -1981.78               
   236 r.240                -1947.68      -1984.51               
   237 r.241                 -1896.3      -1970.29               
   238 r.242                -1960.16      -1977.34               
   239 r.243                 -1896.3      -1970.29               
   240 r.244                -1960.16      -1977.34               
   241 r.245                -1867.39       -1980.3               
   242 r.246                -1982.82      -1983.75               
   243 r.247                -1867.39       -1980.3               
   244 r.248                -1982.82      -1983.75               
   245 r.249                -1963.19      -1980.77               
   246 r.250                 6.92137      -1983.78               
   247 r.251                -1963.19      -1980.77               
   248 r.252                 6.92137      -1983.78               

   No. Column name       Activity     Lower bound   Upper bound
------ ------------    ------------- ------------- -------------
     1 tt                    77.4867             0               
     2 s_1_1        *              1             0             1 
     3 t_1_1                 59.4067             0               
     4 s_1_6        *              1             0             1 
     5 s_2_1        *              0             0             1 
     6 t_2_1                 80.2864             0               
     7 s_2_6        *              0             0             1 
     8 s_1_2        *              0             0             1 
     9 t_1_2                 1958.08             0               
    10 s_1_7        *              0             0             1 
    11 s_2_2        *              1             0             1 
    12 t_2_2                  24.665             0               
    13 s_2_7        *              1             0             1 
    14 s_1_3        *              0             0             1 
    15 t_1_3                 1973.29             0               
    16 s_2_3        *              1             0             1 
    17 t_2_3                 37.1535             0               
    18 s_1_4        *              0             0             1 
    19 t_1_4                 1944.38             0               
    20 s_2_4        *              1             0             1 
    21 t_2_4                 59.8136             0               
    22 s_1_5        *              1             0             1 
    23 t_1_5                 40.1759             0               
    24 s_2_5        *              0             0             1 
    25 t_2_5                 70.0679             0               
    26 t_1_6                       0             0               
    27 t_2_6                 1978.59             0               
    28 t_1_7                 73.9893             0               
    29 t_2_7                       0             0               
    30 s_1_8        *              1             0             1 
    31 t_1_8                 76.9893             0               
    32 s_2_8        *              0             0             1 
    33 t_2_8                 76.9893             0               
    34 u_1_1_2      *              1             0             1 
    35 u_2_1_2      *              0             0             1 
    36 u_1_1_3      *              1             0             1 
    37 u_2_1_3      *              0             0             1 
    38 u_1_1_4      *              1             0             1 
    39 u_2_1_4      *              0             0             1 
    40 u_1_1_5      *              0             0             1 
    41 u_2_1_5      *              0             0             1 
    42 u_1_1_7      *              1             0             1 
    43 u_2_1_7      *              0             0             1 
    44 u_1_2_1      *              0             0             1 
    45 u_2_2_1      *              1             0             1 
    46 u_1_2_3      *              1             0             1 
    47 u_2_2_3      *              1             0             1 
    48 u_1_2_4      *              0             0             1 
    49 u_2_2_4      *              1             0             1 
    50 u_1_2_5      *              0             0             1 
    51 u_2_2_5      *              1             0             1 
    52 u_1_2_6      *              0             0             1 
    53 u_2_2_6      *              1             0             1 
    54 u_1_3_1      *              0             0             1 
    55 u_2_3_1      *              1             0             1 
    56 u_1_3_2      *              0             0             1 
    57 u_2_3_2      *              0             0             1 
    58 u_1_3_5      *              0             0             1 
    59 u_2_3_5      *              1             0             1 
    60 u_1_3_6      *              0             0             1 
    61 u_2_3_6      *              1             0             1 
    62 u_1_4_1      *              0             0             1 
    63 u_2_4_1      *              1             0             1 
    64 u_1_4_2      *              1             0             1 
    65 u_2_4_2      *              0             0             1 
    66 u_1_4_5      *              0             0             1 
    67 u_2_4_5      *              1             0             1 
    68 u_1_4_6      *              0             0             1 
    69 u_2_4_6      *              1             0             1 
    70 u_1_5_1      *              1             0             1 
    71 u_2_5_1      *              1             0             1 
    72 u_1_5_2      *              1             0             1 
    73 u_2_5_2      *              0             0             1 
    74 u_1_5_3      *              1             0             1 
    75 u_2_5_3      *              0             0             1 
    76 u_1_5_4      *              1             0             1 
    77 u_2_5_4      *              0             0             1 
    78 u_1_6_2      *              1             0             1 
    79 u_2_6_2      *              0             0             1 
    80 u_1_6_3      *              1             0             1 
    81 u_2_6_3      *              0             0             1 
    82 u_1_6_4      *              1             0             1 
    83 u_2_6_4      *              0             0             1 
    84 u_1_6_7      *              1             0             1 
    85 u_2_6_7      *              0             0             1 
    86 u_1_7_1      *              0             0             1 
    87 u_2_7_1      *              1             0             1 
    88 u_1_7_6      *              0             0             1 
    89 u_2_7_6      *              1             0             1 

Integer feasibility conditions:

KKT.PE: max.abs.err = 4.55e-13 on row 139
        max.rel.err = 1.10e-16 on row 140
        High quality

KKT.PB: max.abs.err = 8.70e-14 on row 205
        max.rel.err = 5.68e-15 on row 77
        High quality

End of output
